p cnf 49 144
a 35 15 0
e 1 2 3 4 5 6 7 8 9 10 11 12 13 14 16 17 18 19 20 21 22 23 24 25 26 27 28 29 30 31 32 33 34 36 37 38 39 40 41 42 43 44 45 46 47 48 49 0
-1 2 -3 0
1 -2 -3 0
-1 -2 3 0
1 2 3 0
-5 -3 0
-5 -4 0
3 4 5 0
8 7 0
8 7 0
-7 -8 0
-11 9 0
-11 -10 0
-9 10 11 0
12 -8 0
12 11 0
8 -11 -12 0
13 -8 0
13 -12 0
8 12 -13 0
-6 -13 -14 0
6 13 -14 0
-6 13 14 0
6 -13 14 0
15 14 0
15 7 0
-14 -7 -15 0
-5 -15 -16 0
5 15 -16 0
-5 15 16 0
5 -15 16 0
-4 6 -17 0
4 -6 -17 0
-4 -6 17 0
4 6 17 0
17 18 -19 0
-17 -18 -19 0
17 -18 19 0
-17 18 19 0
-9 7 -20 0
9 -7 -20 0
-9 -7 20 0
9 7 20 0
-21 -11 0
-21 7 0
11 -7 21 0
-22 20 0
-22 21 0
-20 -21 22 0
23 -13 0
23 -21 0
13 21 -23 0
24 -22 0
24 23 0
22 -23 -24 0
-25 19 0
-25 -24 0
-19 24 25 0
26 16 0
26 25 0
-16 -25 -26 0
28 -3 0
28 -27 0
3 27 -28 0
29 -28 0
29 -1 0
28 1 -29 0
-30 10 0
-30 29 0
-10 -29 30 0
31 -11 0
31 -30 0
11 30 -31 0
33 32 0
33 -20 0
-32 20 -33 0
-34 -31 0
-34 33 0
31 -33 34 0
35 6 0
35 -21 0
-6 21 -35 0
36 -35 0
36 -8 0
35 8 -36 0
-37 34 0
-37 -36 0
-34 36 37 0
-38 26 0
-38 -37 0
-26 37 38 0
-39 8 0
-39 27 0
-8 -27 39 0
-40 14 0
-40 -39 0
-14 39 40 0
-28 9 -41 0
28 -9 -41 0
-28 -9 41 0
28 9 41 0
6 13 -42 0
-6 -13 -42 0
6 -13 42 0
-6 13 42 0
42 9 -43 0
-42 -9 -43 0
42 -9 43 0
-42 9 43 0
-28 43 -44 0
28 -43 -44 0
-28 -43 44 0
28 43 44 0
45 14 0
45 11 0
-14 -11 -45 0
44 -45 -46 0
-44 45 -46 0
44 45 46 0
-44 -45 46 0
-41 46 -47 0
41 -46 -47 0
-41 -46 47 0
41 46 47 0
40 -47 -48 0
-40 47 -48 0
40 47 48 0
-40 -47 48 0
-49 38 0
-49 48 0
-38 -48 49 0
39 -40 45 0
10 -40 29 -25 24 0
-36 39 37 -32 -26 29 2 0
-49 -40 10 33 -48 -27 -19 -14 0
46 -24 37 -12 4 0
28 37 19 33 -44 0
-17 -30 -45 -35 -6 0
49 25 31 11 -43 -47 0
-15 -16 -10 37 -5 -49 0
-19 -16 -8 -21 -5 -25 0
3 -22 48 16 0
22 -30 17 -32 -34 -10 0
16 47 -13 -45 26 0
49 0
